1 -1 -2 0
1 -1 -3 0
1 -1 4 0
1 -1 5 0
1 -1 -6 0
1 2 -3 0
1 -2 -4 0
1 2 1 0
1 2 6 0
1 7 -8 0
1 -7 -9 0
1 7 3 0
1 7 -4 0
1 7 10 0
1 7 5 0
1 7 6 0
1 11 9 0
1 -11 4 0
1 11 10 0
1 11 12 0
1 -11 -7 0
1 -11 -5 0
1 -11 -6 0
1 -4 13 0
1 -4 14 0
1 4 -11 0
1 -4 2 0
1 -4 15 0
1 4 -16 0
1 4 17 0
1 4 -18 0
1 4 7 0
1 -4 -1 0
1 4 -6 0
1 6 -19 0
1 -6 -13 0
1 -6 20 0
1 -6 14 0
1 6 11 0
1 -6 2 0
1 6 16 0
1 -6 18 0
1 -6 -7 0
1 6 1 0
1 3 13 0
1 -3 -21 0
1 3 2 0
1 3 -22 0
1 3 -16 0
1 -3 23 0
1 -3 7 0
1 -3 5 0
1 5 13 0
1 5 24 0
1 -5 21 0
1 -5 11 0
1 -5 -16 0
1 -5 25 0
1 -5 -23 0
1 -5 -7 0
1 5 -26 0
1 18 8 0
1 18 9 0
1 -18 10 0
1 18 12 0
1 -18 23 0
1 -18 6 0
1 -14 -8 0
1 14 -9 0
1 14 4 0
1 14 10 0
1 14 12 0
1 -14 18 0
1 14 6 0
1 17 -8 0
1 -17 -9 0
1 17 -20 0
1 -17 27 0
1 17 -10 0
1 17 12 0
1 17 28 0
1 17 25 0
1 -17 -29 0
1 17 6 0
1 -20 -8 0
1 20 9 0
1 20 27 0
1 -20 24 0
1 -20 -30 0
1 -20 -4 0
1 20 12 0
1 12 -31 0
1 -12 -32 0
1 -12 -9 0
1 12 -20 0
1 -12 14 0
1 12 -11 0
1 12 33 0
1 12 -34 0
1 -12 35 0
1 -12 17 0
1 -12 18 0
1 -12 -7 0
1 -12 36 0
1 9 -20 0
1 -9 14 0
1 -9 11 0
1 -9 -33 0
1 9 -34 0
1 9 35 0
1 9 12 0
1 -9 -17 0
1 -9 -18 0
1 -9 7 0
1 -10 -37 0
1 10 13 0
1 10 -14 0
1 -10 -11 0
1 10 33 0
1 10 -38 0
1 -10 16 0
1 -10 -17 0
1 -10 -18 0
1 -10 7 0
1 10 -36 0
1 8 37 0
1 -8 20 0
1 8 14 0
1 8 -11 0
1 -8 33 0
1 8 10 0
1 -8 38 0
1 8 16 0
1 8 -17 0
1 -8 -18 0
1 8 -7 0
1 -35 -32 0
1 -35 9 0
1 -35 -27 0
1 35 -30 0
1 -35 -12 0
1 35 16 0
1 35 29 0
1 32 9 0
1 32 -13 0
1 32 30 0
1 32 -35 0
1 -32 12 0
1 -32 28 0
1 32 29 0
1 -34 -31 0
1 -34 -9 0
1 34 -27 0
1 34 30 0
1 -34 38 0
1 -34 -12 0
1 34 29 0
1 -31 -9 0
1 -31 -27 0
1 -31 30 0
1 -31 34 0
1 -31 12 0
1 -31 28 0
1 31 -29 0
1 29 -31 0
1 -29 32 0
1 29 20 0
1 -29 -30 0
1 -29 -34 0
1 29 -17 0
1 -30 -31 0
1 -30 32 0
1 -30 20 0
1 30 -34 0
1 -30 35 0
1 30 -29 0
1 28 31 0
1 28 -20 0
1 28 27 0
1 28 -39 0
1 28 33 0
1 -28 34 0
1 -28 -35 0
1 28 -17 0
1 28 40 0
1 28 36 0
1 27 32 0
1 27 -20 0
1 27 33 0
1 -27 -34 0
1 -27 -17 0
1 -27 -28 0
1 -27 40 0
1 -27 36 0
1 23 41 0
1 -23 21 0
1 -23 -42 0
1 -23 -3 0
1 -23 18 0
1 -21 41 0
1 21 14 0
1 21 -3 0
1 -21 43 0
1 21 44 0
1 -21 23 0
1 -21 5 0
1 -25 -24 0
1 25 42 0
1 -25 -45 0
1 25 -46 0
1 25 47 0
1 -25 -5 0
1 24 44 0
1 24 -20 0
1 -24 41 0
1 24 -42 0
1 24 45 0
1 24 46 0
1 24 3 0
1 24 43 0
1 24 -25 0
1 -24 48 0
1 24 47 0
1 42 44 0
1 -42 -37 0
1 42 -13 0
1 42 24 0
1 42 21 0
1 42 38 0
1 42 23 0
1 44 37 0
1 44 -13 0
1 44 -24 0
1 -44 21 0
1 44 42 0
1 44 38 0
1 44 25 0
1 -44 23 0
1 41 24 0
1 41 -21 0
1 41 -25 0
1 41 -23 0
1 43 24 0
1 -43 25 0
1 -43 -23 0
1 16 -8 0
1 -16 -13 0
1 16 42 0
1 -16 -45 0
1 -16 3 0
1 -16 4 0
1 16 10 0
1 -16 -35 0
1 16 -44 0
1 -16 48 0
1 -16 47 0
1 -16 -5 0
1 16 -6 0
1 13 -8 0
1 13 -42 0
1 -13 45 0
1 13 -3 0
1 -13 4 0
1 13 -44 0
1 -13 -48 0
1 13 -5 0
1 -38 -19 0
1 -38 -37 0
1 -38 42 0
1 38 45 0
1 -38 22 0
1 -38 15 0
1 38 34 0
1 38 44 0
1 38 -48 0
1 -38 26 0
1 -37 19 0
1 -37 -31 0
1 -37 -8 0
1 -37 -42 0
1 -37 -46 0
1 37 -22 0
1 -37 -15 0
1 37 38 0
1 37 -26 0
1 -46 -37 0
1 46 13 0
1 -46 -39 0
1 46 -33 0
1 -46 38 0
1 -46 16 0
1 -46 25 0
1 -46 40 0
1 -46 -36 0
1 47 -37 0
1 -47 -24 0
1 -47 -46 0
1 -47 -39 0
1 -47 33 0
1 47 38 0
1 47 25 0
1 47 36 0
1 -45 -37 0
1 -45 -13 0
1 45 -16 0
1 -45 -25 0
1 45 -48 0
1 -48 -37 0
1 48 13 0
1 48 24 0
1 -48 -38 0
1 -48 25 0
1 -33 -19 0
1 -33 -8 0
1 33 9 0
1 -33 -27 0
1 33 46 0
1 -33 22 0
1 33 10 0
1 33 -15 0
1 -33 28 0
1 33 47 0
1 33 -26 0
1 33 36 0
1 -36 8 0
1 36 19 0
1 -36 -9 0
1 -36 22 0
1 -36 33 0
1 -36 -15 0
1 36 10 0
1 36 12 0
1 36 28 0
1 36 47 0
1 -36 26 0
1 39 -19 0
1 39 -27 0
1 -39 46 0
1 -39 22 0
1 -39 -15 0
1 39 -40 0
1 40 19 0
1 -40 27 0
1 40 39 0
1 -40 22 0
1 -40 -26 0
1 40 47 0
1 15 19 0
1 15 -37 0
1 15 39 0
1 -15 -33 0
1 15 -38 0
1 15 40 0
1 19 39 0
1 19 -33 0
1 19 15 0
1 -19 -38 0
1 19 -6 0
1 -19 40 0
1 -22 -37 0
1 -22 39 0
1 22 -3 0
1 22 -33 0
1 22 -38 0
1 -22 -40 0
1 22 -26 0
1 22 36 0
1 26 39 0
1 -26 22 0
1 26 33 0
1 26 -38 0
1 26 5 0
1 26 40 0
1 -26 36 0
